<?xml version = "1.0" standalone="yes"?>
<!-- This file has been generated by DOcplex version 2.23.222  -->
<CPLEXSolution version="1.0">
 <header
   problemName="CVRP"
   objectiveValue="10810.8"
  />
 <variables>
  <variable name="x_0_2" index="1" value="1.00000"/>
  <variable name="x_0_3" index="2" value="1.00000"/>
  <variable name="x_0_7" index="6" value="1.00000"/>
  <variable name="x_0_8" index="7" value="1.00000"/>
  <variable name="x_0_9" index="8" value="1.00000"/>
  <variable name="x_0_10" index="9" value="1.00000"/>
  <variable name="x_0_13" index="12" value="1.00000"/>
  <variable name="x_1_0" index="15" value="1.00000"/>
  <variable name="x_2_12" index="41" value="1.00000"/>
  <variable name="x_3_0" index="45" value="1.00000"/>
  <variable name="x_4_0" index="60" value="1.00000"/>
  <variable name="x_5_0" index="75" value="1.00000"/>
  <variable name="x_6_0" index="90" value="1.00000"/>
  <variable name="x_7_0" index="105" value="1.00000"/>
  <variable name="x_8_11" index="130" value="1.00000"/>
  <variable name="x_9_14" index="148" value="1.00000"/>
  <variable name="x_10_4" index="154" value="1.00000"/>
  <variable name="x_11_15" index="179" value="1.00000"/>
  <variable name="x_12_0" index="180" value="1.00000"/>
  <variable name="x_13_6" index="201" value="1.00000"/>
  <variable name="x_14_5" index="215" value="1.00000"/>
  <variable name="x_15_1" index="226" value="1.00000"/>
  <variable name="u_1" index="240" value="19.00000"/>
  <variable name="u_2" index="241" value="14.00000"/>
  <variable name="u_3" index="242" value="19.00000"/>
  <variable name="u_4" index="243" value="20.00000"/>
  <variable name="u_5" index="244" value="20.00000"/>
  <variable name="u_6" index="245" value="20.00000"/>
  <variable name="u_7" index="246" value="20.00000"/>
  <variable name="u_8" index="247" value="1.00000"/>
  <variable name="u_9" index="248" value="1.00000"/>
  <variable name="u_10" index="249" value="13.00000"/>
  <variable name="u_11" index="250" value="7.00000"/>
  <variable name="u_12" index="251" value="20.00000"/>
  <variable name="u_13" index="252" value="5.00000"/>
  <variable name="u_14" index="253" value="12.00000"/>
  <variable name="u_15" index="254" value="17.00000"/>
 </variables>
</CPLEXSolution>
